68 70 3 5 46 98 65 
49 62 50 84 64 81 
35 36 37 38 55 1 100 
92 90 83 10 16 12 13 47 
60 69 54 71 72 41 43 42 
31 28 91 96 56 66 
78 73 17 14 9 59 75 86 
88 11 7 8 6 4 45 2 
51 89 33 30 32 29 27 93 
61 67 34 26 20 
80 57 76 82 52 
85 63 48 18 21 19 22 24 25 
15 97 87 74 95 94 
23 39 40 
44 58 77 
99 53 
79 

